10	5
0	3	2	3	1
1	2	9	10
2	1	5
3	2	9	10
4	1	6
5	1	7
6	2	10	9
7	1	8
8	1	4
9	1	11
10	1	11
11	0
0	0	0	0	0	0	0
1	2	1	0	2	0	0
2	7	0	0	0	0	3
3	3	0	0	0	2	0
4	9	1	5	4	3	2
5	4	5	0	0	3	0
6	10	0	0	4	0	0
7	6	3	5	4	4	5
8	3	5	0	0	0	0
9	4	2	4	0	0	0
10	4	3	3	4	3	5
11	0	0	0	0	0	0
4	5	5	4	5
